
Gurobi 11.0.3 (linux64) logging started Mon Aug 25 15:09:29 2025

Set parameter LogFile to value "/home/yihong/Coding/OR_SUC/SUC_epstheta_results_bigM100000_thread4/case24_ieee_rts_theta0.1_epsilon0.1_gurobi_seed70000_num_gen100_N_WDR50_load_scaling_factor1_proposed_eps_T14quadra_cost_bc1.03.txt"
Set parameter TimeLimit to value 3600
Gurobi Optimizer version 11.0.3 build v11.0.3rc0 (linux64 - "Ubuntu 20.04.6 LTS")

CPU model: AMD EPYC 7532 32-Core Processor, instruction set [SSE2|AVX|AVX2]
Thread count: 64 physical cores, 128 logical processors, using up to 4 threads

Academic license 2399124 - for non-commercial use only - registered to yi___@ed.ac.uk
Optimize a model with 33318 rows, 17411 columns and 766758 nonzeros
Model fingerprint: 0xd72b10e8
Model has 1400 quadratic constraints
Variable types: 16011 continuous, 1400 integer (1400 binary)
Coefficient statistics:
  Matrix range     [3e-04, 2e+03]
  QMatrix range    [2e-03, 8e-03]
  QLMatrix range   [5e-01, 6e+01]
  Objective range  [1e+00, 1e+00]
  Bounds range     [1e+00, 1e+00]
  RHS range        [1e+00, 9e+03]
Presolve removed 27351 rows and 7489 columns
Presolve time: 0.25s
Presolved: 5967 rows, 9922 columns, 33472 nonzeros
Presolved model has 1400 quadratic constraint(s)
Variable types: 8522 continuous, 1400 integer (1400 binary)

Root relaxation: objective 1.677744e+04, 4810 iterations, 0.12 seconds (0.16 work units)

    Nodes    |    Current Node    |     Objective Bounds      |     Work
 Expl Unexpl |  Obj  Depth IntInf | Incumbent    BestBd   Gap | It/Node Time

H    0     0                    381435.03340 16777.4420  95.6%     -    0s
*    0     0               0    381435.03340 16777.4420  95.6%     -    0s
     0     0 169238.195    0  583 381435.033 169238.195  55.6%     -    0s
     0     0 344391.058    0  134 381435.033 344391.058  9.71%     -    1s
     0     0 344466.756    0   15 381435.033 344466.756  9.69%     -    1s
     0     0 344468.648    0   14 381435.033 344468.648  9.69%     -    1s
     0     0 344469.216    0   14 381435.033 344469.216  9.69%     -    1s
     0     0 344469.357    0   15 381435.033 344469.357  9.69%     -    1s
     0     0 344469.795    0   15 381435.033 344469.795  9.69%     -    1s
     0     2 344469.894    0   15 381435.033 344469.894  9.69%     -    1s
H  197   231                    344588.22927 344473.124  0.03%  19.1    4s
*  197   231              51    344588.22927 344473.124  0.03%  19.1    4s

Cutting planes:
  Gomory: 31
  Lift-and-project: 5
  Implied bound: 134
  MIR: 36
  Flow cover: 321
  RLT: 202
  Relax-and-lift: 113

Explored 240 nodes (16425 simplex iterations) in 4.68 seconds (4.09 work units)
Thread count was 4 (of 128 available processors)

Solution count 3: 344588 344588 381435 

Optimal solution found (tolerance 1.00e-03)
Warning: max constraint violation (9.1260e-08) exceeds tolerance
Best objective 3.445882292731e+05, best bound 3.444731243054e+05, gap 0.0334%

Gurobi 11.0.3 (linux64) logging started Mon Aug 25 15:09:35 2025

Set parameter LogFile to value "/home/yihong/Coding/OR_SUC/SUC_epstheta_results_bigM100000_thread4/case24_ieee_rts_theta0.1_epsilon0.1_gurobi_seed70000_num_gen100_N_WDR50_load_scaling_factor1_proposed_eps_T14quadra_cost_bc1.03.txt"
Set parameter TimeLimit to value 3600
Gurobi Optimizer version 11.0.3 build v11.0.3rc0 (linux64 - "Ubuntu 20.04.6 LTS")

CPU model: AMD EPYC 7532 32-Core Processor, instruction set [SSE2|AVX|AVX2]
Thread count: 64 physical cores, 128 logical processors, using up to 4 threads

Academic license 2399124 - for non-commercial use only - registered to yi___@ed.ac.uk
Optimize a model with 33318 rows, 17412 columns and 771047 nonzeros
Model fingerprint: 0xd0ffe919
Model has 1401 quadratic constraints
Variable types: 16012 continuous, 1400 integer (1400 binary)
Coefficient statistics:
  Matrix range     [3e-04, 2e+03]
  QMatrix range    [2e-03, 5e+01]
  QLMatrix range   [5e-01, 6e+01]
  Objective range  [1e+00, 1e+00]
  Bounds range     [1e-01, 1e+00]
  RHS range        [1e+00, 4e+05]
  QRHS range       [5e+00, 5e+00]
Presolve removed 24748 rows and 6185 columns
Presolve time: 0.29s
Presolved: 9972 rows, 12627 columns, 51040 nonzeros
Presolved model has 1400 quadratic constraint(s)
Presolved model has 1 bilinear constraint(s)

Solving non-convex MIQCP

Variable types: 11225 continuous, 1402 integer (1402 binary)

Root relaxation: objective 1.461782e-03, 13761 iterations, 1.03 seconds (1.21 work units)

    Nodes    |    Current Node    |     Objective Bounds      |     Work
 Expl Unexpl |  Obj  Depth IntInf | Incumbent    BestBd   Gap | It/Node Time

     0     0    0.00146    0   13          -    0.00146      -     -    2s
     0     0    0.00146    0   10          -    0.00146      -     -    2s
     0     0    0.00201    0   10          -    0.00201      -     -    2s
     0     0    0.00201    0   10          -    0.00201      -     -    2s
     0     0    0.00201    0   10          -    0.00201      -     -    2s
     0     0    0.00201    0   10          -    0.00201      -     -    3s
     0     0    0.00201    0   10          -    0.00201      -     -    3s
     0     0    0.00201    0   10          -    0.00201      -     -    3s
     0     0    0.00201    0   10          -    0.00201      -     -    3s
     0     0    0.00252    0   15          -    0.00252      -     -    3s
H    0     0                       0.0159559    0.00252  84.2%     -    3s
     0     2    0.01238    0   15    0.01596    0.01238  22.4%     -    4s
     3     8    0.01241    2   14    0.01596    0.01238  22.4%   129    5s
   363   404    0.01275  103    4    0.01596    0.01243  22.1%  13.2   10s
H  413   398                       0.0136234    0.01243  8.79%  20.7   10s
*  413   398             114       0.0136234    0.01243  8.79%  20.7   10s
H  489   404                       0.0131620    0.01243  5.58%  20.0   11s
   492   406    0.01304   81   18    0.01316    0.01304  0.94%  19.9   18s
   498   410    0.01305   12   16    0.01316    0.01305  0.89%  19.6   24s
   499   411    0.01310   16   16    0.01316    0.01305  0.89%  19.6   26s
   503   415    0.01306  102   35    0.01316    0.01306  0.77%  55.1   30s
H  503   394                       0.0131546    0.01306  0.71%  55.1   30s
   509   398    0.01306   50   38    0.01315    0.01306  0.71%  54.4   36s
   518   405    0.01315   16   25    0.01315    0.01307  0.66%  84.8   42s
   605   425    0.01311   45   75    0.01315    0.01309  0.52%   102   45s
H  956   448                       0.0131473    0.01309  0.41%  71.3   46s
H 1034   417                       0.0131393    0.01309  0.35%  67.0   46s
H 1130   417                       0.0131387    0.01310  0.31%  62.0   47s
H 1296   336                       0.0131352    0.01310  0.28%  54.6   47s
H 1416   252                       0.0131344    0.01310  0.28%  50.7   48s
H 1464   232                       0.0131340    0.01311  0.15%  49.5   48s
H 1551   247                       0.0131295    0.01311  0.12%  47.1   48s
  1783   483    0.01312   70   26    0.01313    0.01312  0.11%  41.4   50s
H 2570   762                       0.0131263    0.01312  0.08%  29.4   51s

Cutting planes:
  Gomory: 7
  Implied bound: 10
  MIR: 13
  Flow cover: 9
  Inf proof: 4
  RLT: 10
  Relax-and-lift: 8

Explored 2649 nodes (91823 simplex iterations) in 51.89 seconds (47.97 work units)
Thread count was 4 (of 128 available processors)

Solution count 10: 0.0131263 0.0131295 0.013134 ... 0.013162

Optimal solution found (tolerance 1.00e-03)
Best objective 1.312628958327e-02, best bound 1.311515939317e-02, gap 0.0848%
